#######################



#######################
Set parameter TimeLimit to value 500
Set parameter SoftMemLimit to value 125
Set parameter MIPFocus to value 2
Set parameter LogFile to value 1202-MIPFocus2-Presolve2-TimeLimit500-k16x240-5.log
Set parameter Presolve to value 2
Set parameter Seed to value 15
Using license file /opt/gurobi/gurobi.lic

Gurobi Optimizer version 12.0.2 build v12.0.2rc0 (linux64 - "Ubuntu 22.04.4 LTS")
Copyright (c) 2025, Gurobi Optimization, LLC

Read MPS format model from file /miplib2010/k16x240.mps.bz2
Reading time = 0.00 seconds
k16x240: 256 rows, 480 columns, 960 nonzeros

Using Gurobi shared library /nfs/shared/static-builds/gurobi1202

CPU model: Intel(R) Xeon(R) E-2388G CPU @ 3.20GHz, instruction set [SSE2|AVX|AVX2|AVX512]
Thread count: 8 physical cores, 16 logical processors, using up to 16 threads

Non-default parameters:
TimeLimit  500
SoftMemLimit  125
MIPFocus  2
Presolve  2
Seed  15

Optimize a model with 256 rows, 480 columns and 960 nonzeros
Model fingerprint: 0x4e80885f
Variable types: 240 continuous, 240 integer (240 binary)
Coefficient statistics:
  Matrix range     [1e+00, 1e+03]
  Objective range  [1e+00, 1e+03]
  Bounds range     [1e+00, 1e+03]
  RHS range        [4e+00, 4e+02]
Found heuristic solution: objective 16199.000000
Presolve time: 0.00s
Presolved: 256 rows, 480 columns, 960 nonzeros
Variable types: 240 continuous, 240 integer (240 binary)
Root relaxation presolve removed 241 rows and 240 columns
Root relaxation presolved: 15 rows, 240 columns, 450 nonzeros


Root relaxation: objective 2.769838e+03, 16 iterations, 0.00 seconds (0.00 work units)

    Nodes    |    Current Node    |     Objective Bounds      |     Work
 Expl Unexpl |  Obj  Depth IntInf | Incumbent    BestBd   Gap | It/Node Time

     0     0 2769.83800    0   14 16199.0000 2769.83800  82.9%     -    0s
H    0     0                    11359.000000 2769.83800  75.6%     -    0s
H    0     0                    11262.000000 2769.83800  75.4%     -    0s
H    0     0                    11250.000000 2769.83800  75.4%     -    0s
H    0     0                    11027.000000 2769.83800  74.9%     -    0s
H    0     0                    10919.000000 8116.87580  25.7%     -    0s
     0     0 8116.87580    0   26 10919.0000 8116.87580  25.7%     -    0s
H    0     0                    10897.000000 8190.91086  24.8%     -    0s
H    0     0                    10873.000000 8190.91086  24.7%     -    0s
H    0     0                    10832.000000 8190.91086  24.4%     -    0s
H    0     0                    10828.000000 8190.91086  24.4%     -    0s
     0     0 8586.22232    0   26 10828.0000 8586.22232  20.7%     -    0s
H    0     0                    10745.000000 8613.30839  19.8%     -    0s
H    0     0                    10681.000000 8613.30839  19.4%     -    0s
     0     0 8613.30839    0   24 10681.0000 8613.30839  19.4%     -    0s
     0     0 8613.47920    0   24 10681.0000 8613.47920  19.4%     -    0s
     0     0 8673.45409    0   32 10681.0000 8673.45409  18.8%     -    0s
     0     0 8717.54044    0   25 10681.0000 8717.54044  18.4%     -    0s
     0     0 8778.76959    0   33 10681.0000 8778.76959  17.8%     -    0s
     0     0 8782.76905    0   36 10681.0000 8782.76905  17.8%     -    0s
     0     0 9020.49492    0   35 10681.0000 9020.49492  15.5%     -    0s
     0     0 9051.48896    0   40 10681.0000 9051.48896  15.3%     -    0s
     0     0 9052.83329    0   38 10681.0000 9052.83329  15.2%     -    0s
     0     0 9084.27654    0   24 10681.0000 9084.27654  14.9%     -    0s
     0     0 9086.86165    0   27 10681.0000 9086.86165  14.9%     -    0s
     0     0 9119.30972    0   28 10681.0000 9119.30972  14.6%     -    0s
     0     0 9119.71292    0   28 10681.0000 9119.71292  14.6%     -    0s
     0     2 9119.73112    0   28 10681.0000 9119.73112  14.6%     -    0s
H   42    64                    10678.000000 9185.01614  14.0%  35.0    0s
H   52    64                    10674.000000 9185.01614  13.9%  32.6    0s
 32569 12817 10365.8293   41    8 10674.0000 9956.63060  6.72%  24.3    5s
 79326 20342     cutoff   43      10674.0000 10172.2020  4.70%  25.5   10s
 121754 17563     cutoff   35      10674.0000 10330.0462  3.22%  26.0   15s

Cutting planes:
  Gomory: 1
  Lift-and-project: 10
  Cover: 77
  Implied bound: 19
  Dual implied bound: 20
  MIR: 161
  Flow cover: 266
  Flow path: 34
  Zero half: 3
  Network: 43
  Relax-and-lift: 1

Explored 162079 nodes (4045319 simplex iterations) in 19.77 seconds (28.10 work units)
Thread count was 16 (of 16 available processors)

Solution count 10: 10674 10678 10681 ... 11027

Optimal solution found (tolerance 1.00e-04)
Best objective 1.067400000000e+04, best bound 1.067400000000e+04, gap 0.0000%
